Route #1: 2 48 38 32 34 19 15 49 26
Route #2: 16 9 13 46 17 22 50 12 45 4
Route #3: 23 14 39 21 11 28 24 31 3
Route #4: 42 20 18 30 1 36
Route #5: 35 33 43 7 51 47
Route #6: 37 29 27 8 5 10 44
Route #7: 40 6 25 41
Cost 758